problems/GracefulWheelGraphs/GracefulWheelGraphs-models/compact/O2/lingeling/model-n07-solution000001.solution
language Essence 1.3

letting colouring be function(0 --> 4, 1 --> 10, 2 --> 2, 3 --> 9, 4 --> 11, 5 --> 0, 6 --> 13, 7 --> 14)
letting edgeID be
        function(0 --> 6, 1 --> 8, 2 --> 7, 3 --> 2, 4 --> 11, 5 --> 13, 6 --> 9, 7 --> 10, 8 --> 4, 9 --> 12, 10 --> 5,
                 11 --> 3, 12 --> 14, 13 --> 1)
